Welcome to the CBC MILP Solver
Version: Devel (unstable)
Build Date: Feb  6 2022
command line - -import /home/danilo/psp-janniele/J30/j3036/j3036_4.lp -timeM elapsed -seconds 10800 -solve -quit (default strategy 1)
Unable to open file /home/danilo/psp-janniele/J30/j3036/j3036_4.lp
seconds was changed from 1e+08 to 10800
Continuous objective value is 0 - 4.4e-05 seconds
Cgl0015I Clique Strengthening extended 0 cliques, 0 were dominated
